
  32    4
  10   10   10   10

   0   0   0   0   0   5 2 3 5 8 9 
  10   1   1   1   0   2 7 4 
   8   0   5   7   1   4 14 13 11 10 
   9   4   0   5   1   2 10 6 
   5   6   3   0   6   2 10 7 
   6   4   2   0   6   3 19 13 11 
   2   2   0   1   4   3 15 14 13 
   2   6   5   0   5   2 18 10 
   4   6   0   3   3   2 18 10 
  10   2   3   0   7   2 17 12 
   6   0   5   1   4   2 18 12 
   7   5   5   0   5   3 21 16 15 
   2   3   5   0   4   3 21 18 17 
   7   3   3   0   2   4 30 28 19 18 
   5   5   0   3   5   5 30 29 28 22 20 
   3   6   0   3   3   7 31 30 29 28 25 24 23 
  10   6   5   4   0   4 30 28 26 22 
   3   0   4   3   3   2 29 20 
   1   6   0  10   3   3 25 24 23 
   7   6   4   0   3   3 27 24 23 
   3   3   6   5   0   3 29 28 26 
   8   1   6   4   0   2 31 27 
   3   0   1   4   4   1 26 
   1   4   5   0   4   1 26 
   2   3   3   0   5   1 27 
   3   3   6   4   0   1 32
  10   3   0   5   4   1 32
   2   0   5   3   6   1 32
   9   4   3   0   4   1 32
   2   3   3   4   0   1 32
   2   5   0   6   4   1 32
   0   0   0   0   0   0 
